p wcnf 900 348 1000
1000 16 1 2 3 4 5 6 7 8 9 10 11 12 13 14 15 16 17 18 19 20 21 22 23 24 25 26 27 28 29 30  0
1000 14 -1 -2 -3 -4 -5 -6 -7 -8 -9 -10 -11 -12 -13 -14 -15 -16 -17 -18 -19 -20 -21 -22 -23 -24 -25 -26 -27 -28 -29 -30  0
1000 14 31 32 33 34 35 36 37 38 39 40 41 42 43 44 45 46 47 48 49 50 51 52 53 54 55 56 57 58 59 60  0
1000 16 -31 -32 -33 -34 -35 -36 -37 -38 -39 -40 -41 -42 -43 -44 -45 -46 -47 -48 -49 -50 -51 -52 -53 -54 -55 -56 -57 -58 -59 -60  0
1000 17 61 62 63 64 65 66 67 68 69 70 71 72 73 74 75 76 77 78 79 80 81 82 83 84 85 86 87 88 89 90  0
1000 13 -61 -62 -63 -64 -65 -66 -67 -68 -69 -70 -71 -72 -73 -74 -75 -76 -77 -78 -79 -80 -81 -82 -83 -84 -85 -86 -87 -88 -89 -90  0
1000 13 91 92 93 94 95 96 97 98 99 100 101 102 103 104 105 106 107 108 109 110 111 112 113 114 115 116 117 118 119 120  0
1000 17 -91 -92 -93 -94 -95 -96 -97 -98 -99 -100 -101 -102 -103 -104 -105 -106 -107 -108 -109 -110 -111 -112 -113 -114 -115 -116 -117 -118 -119 -120  0
1000 15 121 122 123 124 125 126 127 128 129 130 131 132 133 134 135 136 137 138 139 140 141 142 143 144 145 146 147 148 149 150  0
1000 15 -121 -122 -123 -124 -125 -126 -127 -128 -129 -130 -131 -132 -133 -134 -135 -136 -137 -138 -139 -140 -141 -142 -143 -144 -145 -146 -147 -148 -149 -150  0
1000 14 151 152 153 154 155 156 157 158 159 160 161 162 163 164 165 166 167 168 169 170 171 172 173 174 175 176 177 178 179 180  0
1000 16 -151 -152 -153 -154 -155 -156 -157 -158 -159 -160 -161 -162 -163 -164 -165 -166 -167 -168 -169 -170 -171 -172 -173 -174 -175 -176 -177 -178 -179 -180  0
1000 16 181 182 183 184 185 186 187 188 189 190 191 192 193 194 195 196 197 198 199 200 201 202 203 204 205 206 207 208 209 210  0
1000 14 -181 -182 -183 -184 -185 -186 -187 -188 -189 -190 -191 -192 -193 -194 -195 -196 -197 -198 -199 -200 -201 -202 -203 -204 -205 -206 -207 -208 -209 -210  0
1000 11 211 212 213 214 215 216 217 218 219 220 221 222 223 224 225 226 227 228 229 230 231 232 233 234 235 236 237 238 239 240  0
1000 19 -211 -212 -213 -214 -215 -216 -217 -218 -219 -220 -221 -222 -223 -224 -225 -226 -227 -228 -229 -230 -231 -232 -233 -234 -235 -236 -237 -238 -239 -240  0
1000 14 241 242 243 244 245 246 247 248 249 250 251 252 253 254 255 256 257 258 259 260 261 262 263 264 265 266 267 268 269 270  0
1000 16 -241 -242 -243 -244 -245 -246 -247 -248 -249 -250 -251 -252 -253 -254 -255 -256 -257 -258 -259 -260 -261 -262 -263 -264 -265 -266 -267 -268 -269 -270  0
1000 12 271 272 273 274 275 276 277 278 279 280 281 282 283 284 285 286 287 288 289 290 291 292 293 294 295 296 297 298 299 300  0
1000 18 -271 -272 -273 -274 -275 -276 -277 -278 -279 -280 -281 -282 -283 -284 -285 -286 -287 -288 -289 -290 -291 -292 -293 -294 -295 -296 -297 -298 -299 -300  0
1000 10 301 302 303 304 305 306 307 308 309 310 311 312 313 314 315 316 317 318 319 320 321 322 323 324 325 326 327 328 329 330  0
1000 20 -301 -302 -303 -304 -305 -306 -307 -308 -309 -310 -311 -312 -313 -314 -315 -316 -317 -318 -319 -320 -321 -322 -323 -324 -325 -326 -327 -328 -329 -330  0
1000 11 331 332 333 334 335 336 337 338 339 340 341 342 343 344 345 346 347 348 349 350 351 352 353 354 355 356 357 358 359 360  0
1000 19 -331 -332 -333 -334 -335 -336 -337 -338 -339 -340 -341 -342 -343 -344 -345 -346 -347 -348 -349 -350 -351 -352 -353 -354 -355 -356 -357 -358 -359 -360  0
1000 16 361 362 363 364 365 366 367 368 369 370 371 372 373 374 375 376 377 378 379 380 381 382 383 384 385 386 387 388 389 390  0
1000 14 -361 -362 -363 -364 -365 -366 -367 -368 -369 -370 -371 -372 -373 -374 -375 -376 -377 -378 -379 -380 -381 -382 -383 -384 -385 -386 -387 -388 -389 -390  0
1000 19 391 392 393 394 395 396 397 398 399 400 401 402 403 404 405 406 407 408 409 410 411 412 413 414 415 416 417 418 419 420  0
1000 11 -391 -392 -393 -394 -395 -396 -397 -398 -399 -400 -401 -402 -403 -404 -405 -406 -407 -408 -409 -410 -411 -412 -413 -414 -415 -416 -417 -418 -419 -420  0
1000 16 421 422 423 424 425 426 427 428 429 430 431 432 433 434 435 436 437 438 439 440 441 442 443 444 445 446 447 448 449 450  0
1000 14 -421 -422 -423 -424 -425 -426 -427 -428 -429 -430 -431 -432 -433 -434 -435 -436 -437 -438 -439 -440 -441 -442 -443 -444 -445 -446 -447 -448 -449 -450  0
1000 16 451 452 453 454 455 456 457 458 459 460 461 462 463 464 465 466 467 468 469 470 471 472 473 474 475 476 477 478 479 480  0
1000 14 -451 -452 -453 -454 -455 -456 -457 -458 -459 -460 -461 -462 -463 -464 -465 -466 -467 -468 -469 -470 -471 -472 -473 -474 -475 -476 -477 -478 -479 -480  0
1000 17 481 482 483 484 485 486 487 488 489 490 491 492 493 494 495 496 497 498 499 500 501 502 503 504 505 506 507 508 509 510  0
1000 13 -481 -482 -483 -484 -485 -486 -487 -488 -489 -490 -491 -492 -493 -494 -495 -496 -497 -498 -499 -500 -501 -502 -503 -504 -505 -506 -507 -508 -509 -510  0
1000 13 511 512 513 514 515 516 517 518 519 520 521 522 523 524 525 526 527 528 529 530 531 532 533 534 535 536 537 538 539 540  0
1000 17 -511 -512 -513 -514 -515 -516 -517 -518 -519 -520 -521 -522 -523 -524 -525 -526 -527 -528 -529 -530 -531 -532 -533 -534 -535 -536 -537 -538 -539 -540  0
1000 15 541 542 543 544 545 546 547 548 549 550 551 552 553 554 555 556 557 558 559 560 561 562 563 564 565 566 567 568 569 570  0
1000 15 -541 -542 -543 -544 -545 -546 -547 -548 -549 -550 -551 -552 -553 -554 -555 -556 -557 -558 -559 -560 -561 -562 -563 -564 -565 -566 -567 -568 -569 -570  0
1000 18 571 572 573 574 575 576 577 578 579 580 581 582 583 584 585 586 587 588 589 590 591 592 593 594 595 596 597 598 599 600  0
1000 12 -571 -572 -573 -574 -575 -576 -577 -578 -579 -580 -581 -582 -583 -584 -585 -586 -587 -588 -589 -590 -591 -592 -593 -594 -595 -596 -597 -598 -599 -600  0
1000 15 601 602 603 604 605 606 607 608 609 610 611 612 613 614 615 616 617 618 619 620 621 622 623 624 625 626 627 628 629 630  0
1000 15 -601 -602 -603 -604 -605 -606 -607 -608 -609 -610 -611 -612 -613 -614 -615 -616 -617 -618 -619 -620 -621 -622 -623 -624 -625 -626 -627 -628 -629 -630  0
1000 16 631 632 633 634 635 636 637 638 639 640 641 642 643 644 645 646 647 648 649 650 651 652 653 654 655 656 657 658 659 660  0
1000 14 -631 -632 -633 -634 -635 -636 -637 -638 -639 -640 -641 -642 -643 -644 -645 -646 -647 -648 -649 -650 -651 -652 -653 -654 -655 -656 -657 -658 -659 -660  0
1000 18 661 662 663 664 665 666 667 668 669 670 671 672 673 674 675 676 677 678 679 680 681 682 683 684 685 686 687 688 689 690  0
1000 12 -661 -662 -663 -664 -665 -666 -667 -668 -669 -670 -671 -672 -673 -674 -675 -676 -677 -678 -679 -680 -681 -682 -683 -684 -685 -686 -687 -688 -689 -690  0
1000 15 691 692 693 694 695 696 697 698 699 700 701 702 703 704 705 706 707 708 709 710 711 712 713 714 715 716 717 718 719 720  0
1000 15 -691 -692 -693 -694 -695 -696 -697 -698 -699 -700 -701 -702 -703 -704 -705 -706 -707 -708 -709 -710 -711 -712 -713 -714 -715 -716 -717 -718 -719 -720  0
1000 19 721 722 723 724 725 726 727 728 729 730 731 732 733 734 735 736 737 738 739 740 741 742 743 744 745 746 747 748 749 750  0
1000 11 -721 -722 -723 -724 -725 -726 -727 -728 -729 -730 -731 -732 -733 -734 -735 -736 -737 -738 -739 -740 -741 -742 -743 -744 -745 -746 -747 -748 -749 -750  0
1000 13 751 752 753 754 755 756 757 758 759 760 761 762 763 764 765 766 767 768 769 770 771 772 773 774 775 776 777 778 779 780  0
1000 17 -751 -752 -753 -754 -755 -756 -757 -758 -759 -760 -761 -762 -763 -764 -765 -766 -767 -768 -769 -770 -771 -772 -773 -774 -775 -776 -777 -778 -779 -780  0
1000 16 781 782 783 784 785 786 787 788 789 790 791 792 793 794 795 796 797 798 799 800 801 802 803 804 805 806 807 808 809 810  0
1000 14 -781 -782 -783 -784 -785 -786 -787 -788 -789 -790 -791 -792 -793 -794 -795 -796 -797 -798 -799 -800 -801 -802 -803 -804 -805 -806 -807 -808 -809 -810  0
1000 13 811 812 813 814 815 816 817 818 819 820 821 822 823 824 825 826 827 828 829 830 831 832 833 834 835 836 837 838 839 840  0
1000 17 -811 -812 -813 -814 -815 -816 -817 -818 -819 -820 -821 -822 -823 -824 -825 -826 -827 -828 -829 -830 -831 -832 -833 -834 -835 -836 -837 -838 -839 -840  0
1000 19 841 842 843 844 845 846 847 848 849 850 851 852 853 854 855 856 857 858 859 860 861 862 863 864 865 866 867 868 869 870  0
1000 11 -841 -842 -843 -844 -845 -846 -847 -848 -849 -850 -851 -852 -853 -854 -855 -856 -857 -858 -859 -860 -861 -862 -863 -864 -865 -866 -867 -868 -869 -870  0
1000 13 871 872 873 874 875 876 877 878 879 880 881 882 883 884 885 886 887 888 889 890 891 892 893 894 895 896 897 898 899 900  0
1000 17 -871 -872 -873 -874 -875 -876 -877 -878 -879 -880 -881 -882 -883 -884 -885 -886 -887 -888 -889 -890 -891 -892 -893 -894 -895 -896 -897 -898 -899 -900  0
1000 13 1 31 61 91 121 151 181 211 241 271 301 331 361 391 421 451 481 511 541 571 601 631 661 691 721 751 781 811 841 871  0
1000 17 -1 -31 -61 -91 -121 -151 -181 -211 -241 -271 -301 -331 -361 -391 -421 -451 -481 -511 -541 -571 -601 -631 -661 -691 -721 -751 -781 -811 -841 -871  0
1000 16 2 32 62 92 122 152 182 212 242 272 302 332 362 392 422 452 482 512 542 572 602 632 662 692 722 752 782 812 842 872  0
1000 14 -2 -32 -62 -92 -122 -152 -182 -212 -242 -272 -302 -332 -362 -392 -422 -452 -482 -512 -542 -572 -602 -632 -662 -692 -722 -752 -782 -812 -842 -872  0
1000 17 3 33 63 93 123 153 183 213 243 273 303 333 363 393 423 453 483 513 543 573 603 633 663 693 723 753 783 813 843 873  0
1000 13 -3 -33 -63 -93 -123 -153 -183 -213 -243 -273 -303 -333 -363 -393 -423 -453 -483 -513 -543 -573 -603 -633 -663 -693 -723 -753 -783 -813 -843 -873  0
1000 18 4 34 64 94 124 154 184 214 244 274 304 334 364 394 424 454 484 514 544 574 604 634 664 694 724 754 784 814 844 874  0
1000 12 -4 -34 -64 -94 -124 -154 -184 -214 -244 -274 -304 -334 -364 -394 -424 -454 -484 -514 -544 -574 -604 -634 -664 -694 -724 -754 -784 -814 -844 -874  0
1000 13 5 35 65 95 125 155 185 215 245 275 305 335 365 395 425 455 485 515 545 575 605 635 665 695 725 755 785 815 845 875  0
1000 17 -5 -35 -65 -95 -125 -155 -185 -215 -245 -275 -305 -335 -365 -395 -425 -455 -485 -515 -545 -575 -605 -635 -665 -695 -725 -755 -785 -815 -845 -875  0
1000 16 6 36 66 96 126 156 186 216 246 276 306 336 366 396 426 456 486 516 546 576 606 636 666 696 726 756 786 816 846 876  0
1000 14 -6 -36 -66 -96 -126 -156 -186 -216 -246 -276 -306 -336 -366 -396 -426 -456 -486 -516 -546 -576 -606 -636 -666 -696 -726 -756 -786 -816 -846 -876  0
1000 17 7 37 67 97 127 157 187 217 247 277 307 337 367 397 427 457 487 517 547 577 607 637 667 697 727 757 787 817 847 877  0
1000 13 -7 -37 -67 -97 -127 -157 -187 -217 -247 -277 -307 -337 -367 -397 -427 -457 -487 -517 -547 -577 -607 -637 -667 -697 -727 -757 -787 -817 -847 -877  0
1000 15 8 38 68 98 128 158 188 218 248 278 308 338 368 398 428 458 488 518 548 578 608 638 668 698 728 758 788 818 848 878  0
1000 15 -8 -38 -68 -98 -128 -158 -188 -218 -248 -278 -308 -338 -368 -398 -428 -458 -488 -518 -548 -578 -608 -638 -668 -698 -728 -758 -788 -818 -848 -878  0
1000 15 9 39 69 99 129 159 189 219 249 279 309 339 369 399 429 459 489 519 549 579 609 639 669 699 729 759 789 819 849 879  0
1000 15 -9 -39 -69 -99 -129 -159 -189 -219 -249 -279 -309 -339 -369 -399 -429 -459 -489 -519 -549 -579 -609 -639 -669 -699 -729 -759 -789 -819 -849 -879  0
1000 18 10 40 70 100 130 160 190 220 250 280 310 340 370 400 430 460 490 520 550 580 610 640 670 700 730 760 790 820 850 880  0
1000 12 -10 -40 -70 -100 -130 -160 -190 -220 -250 -280 -310 -340 -370 -400 -430 -460 -490 -520 -550 -580 -610 -640 -670 -700 -730 -760 -790 -820 -850 -880  0
1000 15 11 41 71 101 131 161 191 221 251 281 311 341 371 401 431 461 491 521 551 581 611 641 671 701 731 761 791 821 851 881  0
1000 15 -11 -41 -71 -101 -131 -161 -191 -221 -251 -281 -311 -341 -371 -401 -431 -461 -491 -521 -551 -581 -611 -641 -671 -701 -731 -761 -791 -821 -851 -881  0
1000 15 12 42 72 102 132 162 192 222 252 282 312 342 372 402 432 462 492 522 552 582 612 642 672 702 732 762 792 822 852 882  0
1000 15 -12 -42 -72 -102 -132 -162 -192 -222 -252 -282 -312 -342 -372 -402 -432 -462 -492 -522 -552 -582 -612 -642 -672 -702 -732 -762 -792 -822 -852 -882  0
1000 15 13 43 73 103 133 163 193 223 253 283 313 343 373 403 433 463 493 523 553 583 613 643 673 703 733 763 793 823 853 883  0
1000 15 -13 -43 -73 -103 -133 -163 -193 -223 -253 -283 -313 -343 -373 -403 -433 -463 -493 -523 -553 -583 -613 -643 -673 -703 -733 -763 -793 -823 -853 -883  0
1000 14 14 44 74 104 134 164 194 224 254 284 314 344 374 404 434 464 494 524 554 584 614 644 674 704 734 764 794 824 854 884  0
1000 16 -14 -44 -74 -104 -134 -164 -194 -224 -254 -284 -314 -344 -374 -404 -434 -464 -494 -524 -554 -584 -614 -644 -674 -704 -734 -764 -794 -824 -854 -884  0
1000 14 15 45 75 105 135 165 195 225 255 285 315 345 375 405 435 465 495 525 555 585 615 645 675 705 735 765 795 825 855 885  0
1000 16 -15 -45 -75 -105 -135 -165 -195 -225 -255 -285 -315 -345 -375 -405 -435 -465 -495 -525 -555 -585 -615 -645 -675 -705 -735 -765 -795 -825 -855 -885  0
1000 16 16 46 76 106 136 166 196 226 256 286 316 346 376 406 436 466 496 526 556 586 616 646 676 706 736 766 796 826 856 886  0
1000 14 -16 -46 -76 -106 -136 -166 -196 -226 -256 -286 -316 -346 -376 -406 -436 -466 -496 -526 -556 -586 -616 -646 -676 -706 -736 -766 -796 -826 -856 -886  0
1000 13 17 47 77 107 137 167 197 227 257 287 317 347 377 407 437 467 497 527 557 587 617 647 677 707 737 767 797 827 857 887  0
1000 17 -17 -47 -77 -107 -137 -167 -197 -227 -257 -287 -317 -347 -377 -407 -437 -467 -497 -527 -557 -587 -617 -647 -677 -707 -737 -767 -797 -827 -857 -887  0
1000 14 18 48 78 108 138 168 198 228 258 288 318 348 378 408 438 468 498 528 558 588 618 648 678 708 738 768 798 828 858 888  0
1000 16 -18 -48 -78 -108 -138 -168 -198 -228 -258 -288 -318 -348 -378 -408 -438 -468 -498 -528 -558 -588 -618 -648 -678 -708 -738 -768 -798 -828 -858 -888  0
1000 16 19 49 79 109 139 169 199 229 259 289 319 349 379 409 439 469 499 529 559 589 619 649 679 709 739 769 799 829 859 889  0
1000 14 -19 -49 -79 -109 -139 -169 -199 -229 -259 -289 -319 -349 -379 -409 -439 -469 -499 -529 -559 -589 -619 -649 -679 -709 -739 -769 -799 -829 -859 -889  0
1000 17 20 50 80 110 140 170 200 230 260 290 320 350 380 410 440 470 500 530 560 590 620 650 680 710 740 770 800 830 860 890  0
1000 13 -20 -50 -80 -110 -140 -170 -200 -230 -260 -290 -320 -350 -380 -410 -440 -470 -500 -530 -560 -590 -620 -650 -680 -710 -740 -770 -800 -830 -860 -890  0
1000 17 21 51 81 111 141 171 201 231 261 291 321 351 381 411 441 471 501 531 561 591 621 651 681 711 741 771 801 831 861 891  0
1000 13 -21 -51 -81 -111 -141 -171 -201 -231 -261 -291 -321 -351 -381 -411 -441 -471 -501 -531 -561 -591 -621 -651 -681 -711 -741 -771 -801 -831 -861 -891  0
1000 14 22 52 82 112 142 172 202 232 262 292 322 352 382 412 442 472 502 532 562 592 622 652 682 712 742 772 802 832 862 892  0
1000 16 -22 -52 -82 -112 -142 -172 -202 -232 -262 -292 -322 -352 -382 -412 -442 -472 -502 -532 -562 -592 -622 -652 -682 -712 -742 -772 -802 -832 -862 -892  0
1000 12 23 53 83 113 143 173 203 233 263 293 323 353 383 413 443 473 503 533 563 593 623 653 683 713 743 773 803 833 863 893  0
1000 18 -23 -53 -83 -113 -143 -173 -203 -233 -263 -293 -323 -353 -383 -413 -443 -473 -503 -533 -563 -593 -623 -653 -683 -713 -743 -773 -803 -833 -863 -893  0
1000 15 24 54 84 114 144 174 204 234 264 294 324 354 384 414 444 474 504 534 564 594 624 654 684 714 744 774 804 834 864 894  0
1000 15 -24 -54 -84 -114 -144 -174 -204 -234 -264 -294 -324 -354 -384 -414 -444 -474 -504 -534 -564 -594 -624 -654 -684 -714 -744 -774 -804 -834 -864 -894  0
1000 16 25 55 85 115 145 175 205 235 265 295 325 355 385 415 445 475 505 535 565 595 625 655 685 715 745 775 805 835 865 895  0
1000 14 -25 -55 -85 -115 -145 -175 -205 -235 -265 -295 -325 -355 -385 -415 -445 -475 -505 -535 -565 -595 -625 -655 -685 -715 -745 -775 -805 -835 -865 -895  0
1000 14 26 56 86 116 146 176 206 236 266 296 326 356 386 416 446 476 506 536 566 596 626 656 686 716 746 776 806 836 866 896  0
1000 16 -26 -56 -86 -116 -146 -176 -206 -236 -266 -296 -326 -356 -386 -416 -446 -476 -506 -536 -566 -596 -626 -656 -686 -716 -746 -776 -806 -836 -866 -896  0
1000 14 27 57 87 117 147 177 207 237 267 297 327 357 387 417 447 477 507 537 567 597 627 657 687 717 747 777 807 837 867 897  0
1000 16 -27 -57 -87 -117 -147 -177 -207 -237 -267 -297 -327 -357 -387 -417 -447 -477 -507 -537 -567 -597 -627 -657 -687 -717 -747 -777 -807 -837 -867 -897  0
1000 13 28 58 88 118 148 178 208 238 268 298 328 358 388 418 448 478 508 538 568 598 628 658 688 718 748 778 808 838 868 898  0
1000 17 -28 -58 -88 -118 -148 -178 -208 -238 -268 -298 -328 -358 -388 -418 -448 -478 -508 -538 -568 -598 -628 -658 -688 -718 -748 -778 -808 -838 -868 -898  0
1000 11 29 59 89 119 149 179 209 239 269 299 329 359 389 419 449 479 509 539 569 599 629 659 689 719 749 779 809 839 869 899  0
1000 19 -29 -59 -89 -119 -149 -179 -209 -239 -269 -299 -329 -359 -389 -419 -449 -479 -509 -539 -569 -599 -629 -659 -689 -719 -749 -779 -809 -839 -869 -899  0
1000 17 30 60 90 120 150 180 210 240 270 300 330 360 390 420 450 480 510 540 570 600 630 660 690 720 750 780 810 840 870 900  0
1000 13 -30 -60 -90 -120 -150 -180 -210 -240 -270 -300 -330 -360 -390 -420 -450 -480 -510 -540 -570 -600 -630 -660 -690 -720 -750 -780 -810 -840 -870 -900  0
1000 1 -1  0
1000 1 31 2  0
1000 1 -31 -2  0
1000 3 -61 -32 -3  0
1000 2 91 62 33 4  0
1000 2 -91 -62 -33 -4  0
1000 3 121 92 63 34 5  0
1000 2 -121 -92 -63 -34 -5  0
1000 4 151 122 93 64 35 6  0
1000 2 -151 -122 -93 -64 -35 -6  0
1000 4 181 152 123 94 65 36 7  0
1000 3 -181 -152 -123 -94 -65 -36 -7  0
1000 4 211 182 153 124 95 66 37 8  0
1000 4 -211 -182 -153 -124 -95 -66 -37 -8  0
1000 5 241 212 183 154 125 96 67 38 9  0
1000 4 -241 -212 -183 -154 -125 -96 -67 -38 -9  0
1000 3 271 242 213 184 155 126 97 68 39 10  0
1000 7 -271 -242 -213 -184 -155 -126 -97 -68 -39 -10  0
1000 4 301 272 243 214 185 156 127 98 69 40 11  0
1000 7 -301 -272 -243 -214 -185 -156 -127 -98 -69 -40 -11  0
1000 5 331 302 273 244 215 186 157 128 99 70 41 12  0
1000 7 -331 -302 -273 -244 -215 -186 -157 -128 -99 -70 -41 -12  0
1000 6 361 332 303 274 245 216 187 158 129 100 71 42 13  0
1000 7 -361 -332 -303 -274 -245 -216 -187 -158 -129 -100 -71 -42 -13  0
1000 10 391 362 333 304 275 246 217 188 159 130 101 72 43 14  0
1000 4 -391 -362 -333 -304 -275 -246 -217 -188 -159 -130 -101 -72 -43 -14  0
1000 10 421 392 363 334 305 276 247 218 189 160 131 102 73 44 15  0
1000 5 -421 -392 -363 -334 -305 -276 -247 -218 -189 -160 -131 -102 -73 -44 -15  0
1000 9 451 422 393 364 335 306 277 248 219 190 161 132 103 74 45 16  0
1000 7 -451 -422 -393 -364 -335 -306 -277 -248 -219 -190 -161 -132 -103 -74 -45 -16  0
1000 9 481 452 423 394 365 336 307 278 249 220 191 162 133 104 75 46 17  0
1000 8 -481 -452 -423 -394 -365 -336 -307 -278 -249 -220 -191 -162 -133 -104 -75 -46 -17  0
1000 8 511 482 453 424 395 366 337 308 279 250 221 192 163 134 105 76 47 18  0
1000 10 -511 -482 -453 -424 -395 -366 -337 -308 -279 -250 -221 -192 -163 -134 -105 -76 -47 -18  0
1000 8 541 512 483 454 425 396 367 338 309 280 251 222 193 164 135 106 77 48 19  0
1000 11 -541 -512 -483 -454 -425 -396 -367 -338 -309 -280 -251 -222 -193 -164 -135 -106 -77 -48 -19  0
1000 12 571 542 513 484 455 426 397 368 339 310 281 252 223 194 165 136 107 78 49 20  0
1000 8 -571 -542 -513 -484 -455 -426 -397 -368 -339 -310 -281 -252 -223 -194 -165 -136 -107 -78 -49 -20  0
1000 9 601 572 543 514 485 456 427 398 369 340 311 282 253 224 195 166 137 108 79 50 21  0
1000 12 -601 -572 -543 -514 -485 -456 -427 -398 -369 -340 -311 -282 -253 -224 -195 -166 -137 -108 -79 -50 -21  0
1000 13 631 602 573 544 515 486 457 428 399 370 341 312 283 254 225 196 167 138 109 80 51 22  0
1000 9 -631 -602 -573 -544 -515 -486 -457 -428 -399 -370 -341 -312 -283 -254 -225 -196 -167 -138 -109 -80 -51 -22  0
1000 5 661 632 603 574 545 516 487 458 429 400 371 342 313 284 255 226 197 168 139 110 81 52 23  0
1000 18 -661 -632 -603 -574 -545 -516 -487 -458 -429 -400 -371 -342 -313 -284 -255 -226 -197 -168 -139 -110 -81 -52 -23  0
1000 11 691 662 633 604 575 546 517 488 459 430 401 372 343 314 285 256 227 198 169 140 111 82 53 24  0
1000 13 -691 -662 -633 -604 -575 -546 -517 -488 -459 -430 -401 -372 -343 -314 -285 -256 -227 -198 -169 -140 -111 -82 -53 -24  0
1000 18 721 692 663 634 605 576 547 518 489 460 431 402 373 344 315 286 257 228 199 170 141 112 83 54 25  0
1000 7 -721 -692 -663 -634 -605 -576 -547 -518 -489 -460 -431 -402 -373 -344 -315 -286 -257 -228 -199 -170 -141 -112 -83 -54 -25  0
1000 11 751 722 693 664 635 606 577 548 519 490 461 432 403 374 345 316 287 258 229 200 171 142 113 84 55 26  0
1000 15 -751 -722 -693 -664 -635 -606 -577 -548 -519 -490 -461 -432 -403 -374 -345 -316 -287 -258 -229 -200 -171 -142 -113 -84 -55 -26  0
1000 10 781 752 723 694 665 636 607 578 549 520 491 462 433 404 375 346 317 288 259 230 201 172 143 114 85 56 27  0
1000 17 -781 -752 -723 -694 -665 -636 -607 -578 -549 -520 -491 -462 -433 -404 -375 -346 -317 -288 -259 -230 -201 -172 -143 -114 -85 -56 -27  0
1000 14 811 782 753 724 695 666 637 608 579 550 521 492 463 434 405 376 347 318 289 260 231 202 173 144 115 86 57 28  0
1000 14 -811 -782 -753 -724 -695 -666 -637 -608 -579 -550 -521 -492 -463 -434 -405 -376 -347 -318 -289 -260 -231 -202 -173 -144 -115 -86 -57 -28  0
1000 13 841 812 783 754 725 696 667 638 609 580 551 522 493 464 435 406 377 348 319 290 261 232 203 174 145 116 87 58 29  0
1000 16 -841 -812 -783 -754 -725 -696 -667 -638 -609 -580 -551 -522 -493 -464 -435 -406 -377 -348 -319 -290 -261 -232 -203 -174 -145 -116 -87 -58 -29  0
1000 19 871 842 813 784 755 726 697 668 639 610 581 552 523 494 465 436 407 378 349 320 291 262 233 204 175 146 117 88 59 30  0
1000 11 -871 -842 -813 -784 -755 -726 -697 -668 -639 -610 -581 -552 -523 -494 -465 -436 -407 -378 -349 -320 -291 -262 -233 -204 -175 -146 -117 -88 -59 -30  0
1000 9 60 89 118 147 176 205 234 263 292 321 350 379 408 437 466 495 524 553 582 611 640 669 698 727 756 785 814 843 872  0
1000 20 -60 -89 -118 -147 -176 -205 -234 -263 -292 -321 -350 -379 -408 -437 -466 -495 -524 -553 -582 -611 -640 -669 -698 -727 -756 -785 -814 -843 -872  0
1000 18 90 119 148 177 206 235 264 293 322 351 380 409 438 467 496 525 554 583 612 641 670 699 728 757 786 815 844 873  0
1000 10 -90 -119 -148 -177 -206 -235 -264 -293 -322 -351 -380 -409 -438 -467 -496 -525 -554 -583 -612 -641 -670 -699 -728 -757 -786 -815 -844 -873  0
1000 15 120 149 178 207 236 265 294 323 352 381 410 439 468 497 526 555 584 613 642 671 700 729 758 787 816 845 874  0
1000 12 -120 -149 -178 -207 -236 -265 -294 -323 -352 -381 -410 -439 -468 -497 -526 -555 -584 -613 -642 -671 -700 -729 -758 -787 -816 -845 -874  0
1000 17 150 179 208 237 266 295 324 353 382 411 440 469 498 527 556 585 614 643 672 701 730 759 788 817 846 875  0
1000 9 -150 -179 -208 -237 -266 -295 -324 -353 -382 -411 -440 -469 -498 -527 -556 -585 -614 -643 -672 -701 -730 -759 -788 -817 -846 -875  0
1000 13 180 209 238 267 296 325 354 383 412 441 470 499 528 557 586 615 644 673 702 731 760 789 818 847 876  0
1000 12 -180 -209 -238 -267 -296 -325 -354 -383 -412 -441 -470 -499 -528 -557 -586 -615 -644 -673 -702 -731 -760 -789 -818 -847 -876  0
1000 12 210 239 268 297 326 355 384 413 442 471 500 529 558 587 616 645 674 703 732 761 790 819 848 877  0
1000 12 -210 -239 -268 -297 -326 -355 -384 -413 -442 -471 -500 -529 -558 -587 -616 -645 -674 -703 -732 -761 -790 -819 -848 -877  0
1000 11 240 269 298 327 356 385 414 443 472 501 530 559 588 617 646 675 704 733 762 791 820 849 878  0
1000 12 -240 -269 -298 -327 -356 -385 -414 -443 -472 -501 -530 -559 -588 -617 -646 -675 -704 -733 -762 -791 -820 -849 -878  0
1000 9 270 299 328 357 386 415 444 473 502 531 560 589 618 647 676 705 734 763 792 821 850 879  0
1000 13 -270 -299 -328 -357 -386 -415 -444 -473 -502 -531 -560 -589 -618 -647 -676 -705 -734 -763 -792 -821 -850 -879  0
1000 12 300 329 358 387 416 445 474 503 532 561 590 619 648 677 706 735 764 793 822 851 880  0
1000 9 -300 -329 -358 -387 -416 -445 -474 -503 -532 -561 -590 -619 -648 -677 -706 -735 -764 -793 -822 -851 -880  0
1000 10 330 359 388 417 446 475 504 533 562 591 620 649 678 707 736 765 794 823 852 881  0
1000 10 -330 -359 -388 -417 -446 -475 -504 -533 -562 -591 -620 -649 -678 -707 -736 -765 -794 -823 -852 -881  0
1000 7 360 389 418 447 476 505 534 563 592 621 650 679 708 737 766 795 824 853 882  0
1000 12 -360 -389 -418 -447 -476 -505 -534 -563 -592 -621 -650 -679 -708 -737 -766 -795 -824 -853 -882  0
1000 11 390 419 448 477 506 535 564 593 622 651 680 709 738 767 796 825 854 883  0
1000 7 -390 -419 -448 -477 -506 -535 -564 -593 -622 -651 -680 -709 -738 -767 -796 -825 -854 -883  0
1000 8 420 449 478 507 536 565 594 623 652 681 710 739 768 797 826 855 884  0
1000 9 -420 -449 -478 -507 -536 -565 -594 -623 -652 -681 -710 -739 -768 -797 -826 -855 -884  0
1000 8 450 479 508 537 566 595 624 653 682 711 740 769 798 827 856 885  0
1000 8 -450 -479 -508 -537 -566 -595 -624 -653 -682 -711 -740 -769 -798 -827 -856 -885  0
1000 8 480 509 538 567 596 625 654 683 712 741 770 799 828 857 886  0
1000 7 -480 -509 -538 -567 -596 -625 -654 -683 -712 -741 -770 -799 -828 -857 -886  0
1000 8 510 539 568 597 626 655 684 713 742 771 800 829 858 887  0
1000 6 -510 -539 -568 -597 -626 -655 -684 -713 -742 -771 -800 -829 -858 -887  0
1000 6 540 569 598 627 656 685 714 743 772 801 830 859 888  0
1000 7 -540 -569 -598 -627 -656 -685 -714 -743 -772 -801 -830 -859 -888  0
1000 7 570 599 628 657 686 715 744 773 802 831 860 889  0
1000 5 -570 -599 -628 -657 -686 -715 -744 -773 -802 -831 -860 -889  0
1000 7 600 629 658 687 716 745 774 803 832 861 890  0
1000 4 -600 -629 -658 -687 -716 -745 -774 -803 -832 -861 -890  0
1000 3 630 659 688 717 746 775 804 833 862 891  0
1000 7 -630 -659 -688 -717 -746 -775 -804 -833 -862 -891  0
1000 6 660 689 718 747 776 805 834 863 892  0
1000 3 -660 -689 -718 -747 -776 -805 -834 -863 -892  0
1000 5 690 719 748 777 806 835 864 893  0
1000 3 -690 -719 -748 -777 -806 -835 -864 -893  0
1000 5 720 749 778 807 836 865 894  0
1000 2 -720 -749 -778 -807 -836 -865 -894  0
1000 1 750 779 808 837 866 895  0
1000 5 -750 -779 -808 -837 -866 -895  0
1000 2 780 809 838 867 896  0
1000 3 -780 -809 -838 -867 -896  0
1000 2 810 839 868 897  0
1000 2 -810 -839 -868 -897  0
1000 3 -840 -869 -898  0
1000 2 -870 -899  0
1000 1 -900  0
1000 16 1 32 63 94 125 156 187 218 249 280 311 342 373 404 435 466 497 528 559 590 621 652 683 714 745 776 807 838 869 900  0
1000 14 -1 -32 -63 -94 -125 -156 -187 -218 -249 -280 -311 -342 -373 -404 -435 -466 -497 -528 -559 -590 -621 -652 -683 -714 -745 -776 -807 -838 -869 -900  0
1000 15 31 62 93 124 155 186 217 248 279 310 341 372 403 434 465 496 527 558 589 620 651 682 713 744 775 806 837 868 899  0
1000 14 -31 -62 -93 -124 -155 -186 -217 -248 -279 -310 -341 -372 -403 -434 -465 -496 -527 -558 -589 -620 -651 -682 -713 -744 -775 -806 -837 -868 -899  0
1000 14 61 92 123 154 185 216 247 278 309 340 371 402 433 464 495 526 557 588 619 650 681 712 743 774 805 836 867 898  0
1000 14 -61 -92 -123 -154 -185 -216 -247 -278 -309 -340 -371 -402 -433 -464 -495 -526 -557 -588 -619 -650 -681 -712 -743 -774 -805 -836 -867 -898  0
1000 13 91 122 153 184 215 246 277 308 339 370 401 432 463 494 525 556 587 618 649 680 711 742 773 804 835 866 897  0
1000 14 -91 -122 -153 -184 -215 -246 -277 -308 -339 -370 -401 -432 -463 -494 -525 -556 -587 -618 -649 -680 -711 -742 -773 -804 -835 -866 -897  0
1000 13 121 152 183 214 245 276 307 338 369 400 431 462 493 524 555 586 617 648 679 710 741 772 803 834 865 896  0
1000 13 -121 -152 -183 -214 -245 -276 -307 -338 -369 -400 -431 -462 -493 -524 -555 -586 -617 -648 -679 -710 -741 -772 -803 -834 -865 -896  0
1000 16 151 182 213 244 275 306 337 368 399 430 461 492 523 554 585 616 647 678 709 740 771 802 833 864 895  0
1000 9 -151 -182 -213 -244 -275 -306 -337 -368 -399 -430 -461 -492 -523 -554 -585 -616 -647 -678 -709 -740 -771 -802 -833 -864 -895  0
1000 10 181 212 243 274 305 336 367 398 429 460 491 522 553 584 615 646 677 708 739 770 801 832 863 894  0
1000 14 -181 -212 -243 -274 -305 -336 -367 -398 -429 -460 -491 -522 -553 -584 -615 -646 -677 -708 -739 -770 -801 -832 -863 -894  0
1000 11 211 242 273 304 335 366 397 428 459 490 521 552 583 614 645 676 707 738 769 800 831 862 893  0
1000 12 -211 -242 -273 -304 -335 -366 -397 -428 -459 -490 -521 -552 -583 -614 -645 -676 -707 -738 -769 -800 -831 -862 -893  0
1000 11 241 272 303 334 365 396 427 458 489 520 551 582 613 644 675 706 737 768 799 830 861 892  0
1000 11 -241 -272 -303 -334 -365 -396 -427 -458 -489 -520 -551 -582 -613 -644 -675 -706 -737 -768 -799 -830 -861 -892  0
1000 12 271 302 333 364 395 426 457 488 519 550 581 612 643 674 705 736 767 798 829 860 891  0
1000 9 -271 -302 -333 -364 -395 -426 -457 -488 -519 -550 -581 -612 -643 -674 -705 -736 -767 -798 -829 -860 -891  0
1000 9 301 332 363 394 425 456 487 518 549 580 611 642 673 704 735 766 797 828 859 890  0
1000 11 -301 -332 -363 -394 -425 -456 -487 -518 -549 -580 -611 -642 -673 -704 -735 -766 -797 -828 -859 -890  0
1000 11 331 362 393 424 455 486 517 548 579 610 641 672 703 734 765 796 827 858 889  0
1000 8 -331 -362 -393 -424 -455 -486 -517 -548 -579 -610 -641 -672 -703 -734 -765 -796 -827 -858 -889  0
1000 12 361 392 423 454 485 516 547 578 609 640 671 702 733 764 795 826 857 888  0
1000 6 -361 -392 -423 -454 -485 -516 -547 -578 -609 -640 -671 -702 -733 -764 -795 -826 -857 -888  0
1000 9 391 422 453 484 515 546 577 608 639 670 701 732 763 794 825 856 887  0
1000 8 -391 -422 -453 -484 -515 -546 -577 -608 -639 -670 -701 -732 -763 -794 -825 -856 -887  0
1000 8 421 452 483 514 545 576 607 638 669 700 731 762 793 824 855 886  0
1000 8 -421 -452 -483 -514 -545 -576 -607 -638 -669 -700 -731 -762 -793 -824 -855 -886  0
1000 10 451 482 513 544 575 606 637 668 699 730 761 792 823 854 885  0
1000 5 -451 -482 -513 -544 -575 -606 -637 -668 -699 -730 -761 -792 -823 -854 -885  0
1000 9 481 512 543 574 605 636 667 698 729 760 791 822 853 884  0
1000 5 -481 -512 -543 -574 -605 -636 -667 -698 -729 -760 -791 -822 -853 -884  0
1000 7 511 542 573 604 635 666 697 728 759 790 821 852 883  0
1000 6 -511 -542 -573 -604 -635 -666 -697 -728 -759 -790 -821 -852 -883  0
1000 4 541 572 603 634 665 696 727 758 789 820 851 882  0
1000 8 -541 -572 -603 -634 -665 -696 -727 -758 -789 -820 -851 -882  0
1000 5 571 602 633 664 695 726 757 788 819 850 881  0
1000 6 -571 -602 -633 -664 -695 -726 -757 -788 -819 -850 -881  0
1000 4 601 632 663 694 725 756 787 818 849 880  0
1000 6 -601 -632 -663 -694 -725 -756 -787 -818 -849 -880  0
1000 7 631 662 693 724 755 786 817 848 879  0
1000 2 -631 -662 -693 -724 -755 -786 -817 -848 -879  0
1000 4 661 692 723 754 785 816 847 878  0
1000 4 -661 -692 -723 -754 -785 -816 -847 -878  0
1000 2 691 722 753 784 815 846 877  0
1000 5 -691 -722 -753 -784 -815 -846 -877  0
1000 3 721 752 783 814 845 876  0
1000 3 -721 -752 -783 -814 -845 -876  0
1000 4 751 782 813 844 875  0
1000 1 -751 -782 -813 -844 -875  0
1000 3 781 812 843 874  0
1000 1 -781 -812 -843 -874  0
1000 2 811 842 873  0
1000 1 -811 -842 -873  0
1000 1 841 872  0
1000 1 -841 -872  0
1000 1 871  0
1000 13 2 33 64 95 126 157 188 219 250 281 312 343 374 405 436 467 498 529 560 591 622 653 684 715 746 777 808 839 870  0
1000 16 -2 -33 -64 -95 -126 -157 -188 -219 -250 -281 -312 -343 -374 -405 -436 -467 -498 -529 -560 -591 -622 -653 -684 -715 -746 -777 -808 -839 -870  0
1000 9 3 34 65 96 127 158 189 220 251 282 313 344 375 406 437 468 499 530 561 592 623 654 685 716 747 778 809 840  0
1000 19 -3 -34 -65 -96 -127 -158 -189 -220 -251 -282 -313 -344 -375 -406 -437 -468 -499 -530 -561 -592 -623 -654 -685 -716 -747 -778 -809 -840  0
1000 11 4 35 66 97 128 159 190 221 252 283 314 345 376 407 438 469 500 531 562 593 624 655 686 717 748 779 810  0
1000 16 -4 -35 -66 -97 -128 -159 -190 -221 -252 -283 -314 -345 -376 -407 -438 -469 -500 -531 -562 -593 -624 -655 -686 -717 -748 -779 -810  0
1000 11 5 36 67 98 129 160 191 222 253 284 315 346 377 408 439 470 501 532 563 594 625 656 687 718 749 780  0
1000 15 -5 -36 -67 -98 -129 -160 -191 -222 -253 -284 -315 -346 -377 -408 -439 -470 -501 -532 -563 -594 -625 -656 -687 -718 -749 -780  0
1000 15 6 37 68 99 130 161 192 223 254 285 316 347 378 409 440 471 502 533 564 595 626 657 688 719 750  0
1000 10 -6 -37 -68 -99 -130 -161 -192 -223 -254 -285 -316 -347 -378 -409 -440 -471 -502 -533 -564 -595 -626 -657 -688 -719 -750  0
1000 11 7 38 69 100 131 162 193 224 255 286 317 348 379 410 441 472 503 534 565 596 627 658 689 720  0
1000 13 -7 -38 -69 -100 -131 -162 -193 -224 -255 -286 -317 -348 -379 -410 -441 -472 -503 -534 -565 -596 -627 -658 -689 -720  0
1000 11 8 39 70 101 132 163 194 225 256 287 318 349 380 411 442 473 504 535 566 597 628 659 690  0
1000 12 -8 -39 -70 -101 -132 -163 -194 -225 -256 -287 -318 -349 -380 -411 -442 -473 -504 -535 -566 -597 -628 -659 -690  0
1000 12 9 40 71 102 133 164 195 226 257 288 319 350 381 412 443 474 505 536 567 598 629 660  0
1000 10 -9 -40 -71 -102 -133 -164 -195 -226 -257 -288 -319 -350 -381 -412 -443 -474 -505 -536 -567 -598 -629 -660  0
1000 13 10 41 72 103 134 165 196 227 258 289 320 351 382 413 444 475 506 537 568 599 630  0
1000 8 -10 -41 -72 -103 -134 -165 -196 -227 -258 -289 -320 -351 -382 -413 -444 -475 -506 -537 -568 -599 -630  0
1000 9 11 42 73 104 135 166 197 228 259 290 321 352 383 414 445 476 507 538 569 600  0
1000 11 -11 -42 -73 -104 -135 -166 -197 -228 -259 -290 -321 -352 -383 -414 -445 -476 -507 -538 -569 -600  0
1000 11 12 43 74 105 136 167 198 229 260 291 322 353 384 415 446 477 508 539 570  0
1000 8 -12 -43 -74 -105 -136 -167 -198 -229 -260 -291 -322 -353 -384 -415 -446 -477 -508 -539 -570  0
1000 7 13 44 75 106 137 168 199 230 261 292 323 354 385 416 447 478 509 540  0
1000 11 -13 -44 -75 -106 -137 -168 -199 -230 -261 -292 -323 -354 -385 -416 -447 -478 -509 -540  0
1000 7 14 45 76 107 138 169 200 231 262 293 324 355 386 417 448 479 510  0
1000 10 -14 -45 -76 -107 -138 -169 -200 -231 -262 -293 -324 -355 -386 -417 -448 -479 -510  0
1000 7 15 46 77 108 139 170 201 232 263 294 325 356 387 418 449 480  0
1000 9 -15 -46 -77 -108 -139 -170 -201 -232 -263 -294 -325 -356 -387 -418 -449 -480  0
1000 5 16 47 78 109 140 171 202 233 264 295 326 357 388 419 450  0
1000 10 -16 -47 -78 -109 -140 -171 -202 -233 -264 -295 -326 -357 -388 -419 -450  0
1000 9 17 48 79 110 141 172 203 234 265 296 327 358 389 420  0
1000 5 -17 -48 -79 -110 -141 -172 -203 -234 -265 -296 -327 -358 -389 -420  0
1000 7 18 49 80 111 142 173 204 235 266 297 328 359 390  0
1000 6 -18 -49 -80 -111 -142 -173 -204 -235 -266 -297 -328 -359 -390  0
1000 3 19 50 81 112 143 174 205 236 267 298 329 360  0
1000 9 -19 -50 -81 -112 -143 -174 -205 -236 -267 -298 -329 -360  0
1000 6 20 51 82 113 144 175 206 237 268 299 330  0
1000 5 -20 -51 -82 -113 -144 -175 -206 -237 -268 -299 -330  0
1000 5 21 52 83 114 145 176 207 238 269 300  0
1000 5 -21 -52 -83 -114 -145 -176 -207 -238 -269 -300  0
1000 5 22 53 84 115 146 177 208 239 270  0
1000 4 -22 -53 -84 -115 -146 -177 -208 -239 -270  0
1000 3 23 54 85 116 147 178 209 240  0
1000 5 -23 -54 -85 -116 -147 -178 -209 -240  0
1000 4 24 55 86 117 148 179 210  0
1000 3 -24 -55 -86 -117 -148 -179 -210  0
1000 4 25 56 87 118 149 180  0
1000 2 -25 -56 -87 -118 -149 -180  0
1000 1 26 57 88 119 150  0
1000 4 -26 -57 -88 -119 -150  0
1000 2 27 58 89 120  0
1000 2 -27 -58 -89 -120  0
1000 2 28 59 90  0
1000 1 -28 -59 -90  0
1000 2 -29 -60  0
1000 1 30  0
